50
1 0 53
2 0 58
2 1 76
3 0 4
3 1 40
3 2 50
4 0 14
4 1 42
4 2 87
4 3 88
5 0 15
5 1 52
5 2 20
5 3 79
5 4 77
6 0 53
6 1 60
6 2 4
6 3 78
6 4 37
6 5 66
7 0 78
7 1 76
7 2 60
7 3 64
7 4 54
7 5 75
7 6 100
8 0 53
8 1 26
8 2 79
8 3 77
8 4 55
8 5 6
8 6 100
8 7 82
9 0 40
9 1 74
9 2 84
9 3 77
9 4 69
9 5 15
9 6 82
9 7 42
9 8 12
10 0 14
10 1 78
10 2 95
10 3 52
10 4 53
10 5 31
10 6 5
10 7 71
10 8 35
10 9 27
11 0 77
11 1 77
11 2 44
11 3 19
11 4 77
11 5 33
11 6 98
11 7 17
11 8 24
11 9 79
11 10 60
12 0 52
12 1 78
12 2 72
12 3 13
12 4 19
12 5 81
12 6 74
12 7 23
12 8 86
12 9 50
12 10 71
12 11 33
13 0 12
13 1 22
13 2 2
13 3 66
13 4 23
13 5 87
13 6 21
13 7 40
13 8 24
13 9 83
13 10 43
13 11 3
13 12 57
14 0 26
14 1 22
14 2 63
14 3 35
14 4 88
14 5 72
14 6 55
14 7 1
14 8 72
14 9 40
14 10 76
14 11 98
14 12 22
14 13 75
15 0 86
15 1 57
15 2 84
15 3 61
15 4 36
15 5 21
15 6 98
15 7 5
15 8 98
15 9 78
15 10 85
15 11 1
15 12 93
15 13 65
15 14 72
16 0 8
16 1 32
16 2 63
16 3 45
16 4 14
16 5 43
16 6 5
16 7 52
16 8 77
16 9 27
16 10 49
16 11 77
16 12 57
16 13 65
16 14 9
16 15 55
17 0 87
17 1 91
17 2 34
17 3 16
17 4 50
17 5 80
17 6 78
17 7 58
17 8 50
17 9 25
17 10 100
17 11 6
17 12 97
17 13 6
17 14 100
17 15 92
17 16 54
18 0 61
18 1 64
18 2 67
18 3 1
18 4 37
18 5 74
18 6 37
18 7 23
18 8 52
18 9 26
18 10 76
18 11 31
18 12 12
18 13 39
18 14 60
18 15 58
18 16 73
18 17 57
19 0 25
19 1 2
19 2 12
19 3 78
19 4 49
19 5 5
19 6 83
19 7 68
19 8 95
19 9 90
19 10 44
19 11 28
19 12 90
19 13 94
19 14 93
19 15 32
19 16 2
19 17 64
19 18 53
20 0 60
20 1 48
20 2 16
20 3 86
20 4 81
20 5 63
20 6 61
20 7 25
20 8 68
20 9 83
20 10 63
20 11 59
20 12 52
20 13 37
20 14 66
20 15 15
20 16 32
20 17 66
20 18 11
20 19 10
21 0 22
21 1 81
21 2 43
21 3 67
21 4 82
21 5 48
21 6 62
21 7 38
21 8 75
21 9 77
21 10 71
21 11 56
21 12 38
21 13 12
21 14 30
21 15 8
21 16 68
21 17 86
21 18 25
21 19 25
21 20 58
22 0 77
22 1 93
22 2 8
22 3 30
22 4 65
22 5 71
22 6 45
22 7 56
22 8 1
22 9 73
22 10 83
22 11 54
22 12 13
22 13 96
22 14 68
22 15 24
22 16 26
22 17 2
22 18 63
22 19 25
22 20 75
22 21 57
23 0 4
23 1 35
23 2 16
23 3 99
23 4 57
23 5 41
23 6 82
23 7 70
23 8 87
23 9 42
23 10 44
23 11 42
23 12 51
23 13 71
23 14 50
23 15 10
23 16 72
23 17 57
23 18 77
23 19 51
23 20 66
23 21 3
23 22 6
24 0 51
24 1 16
24 2 32
24 3 3
24 4 59
24 5 25
24 6 34
24 7 81
24 8 22
24 9 91
24 10 17
24 11 53
24 12 4
24 13 78
24 14 44
24 15 26
24 16 4
24 17 84
24 18 17
24 19 74
24 20 4
24 21 31
24 22 16
24 23 1
25 0 36
25 1 23
25 2 32
25 3 90
25 4 46
25 5 42
25 6 40
25 7 76
25 8 68
25 9 94
25 10 94
25 11 15
25 12 71
25 13 13
25 14 57
25 15 14
25 16 19
25 17 86
25 18 80
25 19 60
25 20 68
25 21 55
25 22 100
25 23 65
25 24 85
26 0 22
26 1 33
26 2 87
26 3 59
26 4 46
26 5 61
26 6 37
26 7 51
26 8 20
26 9 53
26 10 50
26 11 97
26 12 60
26 13 61
26 14 86
26 15 54
26 16 43
26 17 96
26 18 98
26 19 58
26 20 93
26 21 51
26 22 76
26 23 47
26 24 75
26 25 44
27 0 58
27 1 42
27 2 61
27 3 2
27 4 59
27 5 15
27 6 85
27 7 84
27 8 71
27 9 65
27 10 88
27 11 43
27 12 26
27 13 96
27 14 23
27 15 57
27 16 25
27 17 69
27 18 73
27 19 81
27 20 82
27 21 52
27 22 1
27 23 12
27 24 31
27 25 15
27 26 44
28 0 57
28 1 89
28 2 36
28 3 1
28 4 39
28 5 92
28 6 100
28 7 89
28 8 4
28 9 26
28 10 26
28 11 74
28 12 1
28 13 26
28 14 50
28 15 83
28 16 34
28 17 27
28 18 42
28 19 69
28 20 41
28 21 75
28 22 41
28 23 78
28 24 17
28 25 37
28 26 31
28 27 42
29 0 100
29 1 69
29 2 100
29 3 99
29 4 99
29 5 34
29 6 45
29 7 4
29 8 99
29 9 74
29 10 27
29 11 1
29 12 14
29 13 79
29 14 74
29 15 48
29 16 37
29 17 2
29 18 99
29 19 33
29 20 30
29 21 31
29 22 79
29 23 11
29 24 49
29 25 99
29 26 100
29 27 59
29 28 85
30 0 89
30 1 81
30 2 19
30 3 86
30 4 91
30 5 24
30 6 87
30 7 67
30 8 94
30 9 47
30 10 64
30 11 53
30 12 24
30 13 9
30 14 62
30 15 78
30 16 66
30 17 29
30 18 65
30 19 64
30 20 41
30 21 50
30 22 55
30 23 40
30 24 99
30 25 12
30 26 65
30 27 64
30 28 69
30 29 32
31 0 24
31 1 90
31 2 83
31 3 100
31 4 5
31 5 57
31 6 39
31 7 45
31 8 76
31 9 16
31 10 96
31 11 21
31 12 38
31 13 10
31 14 5
31 15 27
31 16 85
31 17 80
31 18 16
31 19 65
31 20 20
31 21 61
31 22 18
31 23 78
31 24 24
31 25 82
31 26 6
31 27 44
31 28 41
31 29 99
31 30 79
32 0 8
32 1 52
32 2 13
32 3 12
32 4 86
32 5 30
32 6 55
32 7 54
32 8 58
32 9 8
32 10 47
32 11 46
32 12 44
32 13 4
32 14 57
32 15 72
32 16 44
32 17 71
32 18 23
32 19 72
32 20 50
32 21 91
32 22 1
32 23 79
32 24 93
32 25 12
32 26 68
32 27 77
32 28 73
32 29 92
32 30 86
32 31 78
33 0 82
33 1 24
33 2 5
33 3 58
33 4 26
33 5 25
33 6 62
33 7 24
33 8 81
33 9 44
33 10 5
33 11 77
33 12 83
33 13 99
33 14 47
33 15 7
33 16 99
33 17 46
33 18 27
33 19 36
33 20 39
33 21 73
33 22 50
33 23 85
33 24 23
33 25 28
33 26 97
33 27 35
33 28 78
33 29 53
33 30 69
33 31 14
33 32 75
34 0 73
34 1 76
34 2 31
34 3 87
34 4 64
34 5 95
34 6 18
34 7 53
34 8 3
34 9 67
34 10 83
34 11 79
34 12 62
34 13 85
34 14 59
34 15 93
34 16 7
34 17 17
34 18 12
34 19 62
34 20 24
34 21 47
34 22 51
34 23 10
34 24 61
34 25 47
34 26 34
34 27 15
34 28 75
34 29 91
34 30 76
34 31 67
34 32 19
34 33 87
35 0 8
35 1 11
35 2 98
35 3 94
35 4 31
35 5 19
35 6 3
35 7 33
35 8 64
35 9 46
35 10 72
35 11 27
35 12 88
35 13 85
35 14 60
35 15 11
35 16 40
35 17 16
35 18 3
35 19 6
35 20 87
35 21 2
35 22 19
35 23 63
35 24 3
35 25 2
35 26 76
35 27 90
35 28 31
35 29 91
35 30 12
35 31 39
35 32 80
35 33 99
35 34 3
36 0 13
36 1 24
36 2 20
36 3 100
36 4 16
36 5 65
36 6 55
36 7 92
36 8 65
36 9 7
36 10 79
36 11 58
36 12 15
36 13 42
36 14 55
36 15 11
36 16 96
36 17 37
36 18 35
36 19 68
36 20 47
36 21 88
36 22 11
36 23 73
36 24 84
36 25 67
36 26 20
36 27 72
36 28 64
36 29 87
36 30 6
36 31 16
36 32 13
36 33 60
36 34 91
36 35 32
37 0 33
37 1 16
37 2 29
37 3 6
37 4 16
37 5 14
37 6 14
37 7 46
37 8 11
37 9 61
37 10 81
37 11 33
37 12 40
37 13 23
37 14 34
37 15 76
37 16 54
37 17 91
37 18 63
37 19 28
37 20 66
37 21 33
37 22 61
37 23 30
37 24 17
37 25 59
37 26 28
37 27 79
37 28 49
37 29 52
37 30 43
37 31 58
37 32 95
37 33 76
37 34 32
37 35 63
37 36 19
38 0 44
38 1 60
38 2 1
38 3 49
38 4 2
38 5 36
38 6 75
38 7 100
38 8 81
38 9 96
38 10 51
38 11 75
38 12 8
38 13 13
38 14 85
38 15 91
38 16 82
38 17 39
38 18 66
38 19 65
38 20 58
38 21 99
38 22 75
38 23 64
38 24 98
38 25 57
38 26 96
38 27 100
38 28 67
38 29 58
38 30 13
38 31 20
38 32 1
38 33 1
38 34 71
38 35 36
38 36 71
38 37 90
39 0 11
39 1 70
39 2 7
39 3 86
39 4 85
39 5 36
39 6 75
39 7 42
39 8 14
39 9 70
39 10 5
39 11 98
39 12 54
39 13 79
39 14 21
39 15 74
39 16 74
39 17 77
39 18 25
39 19 78
39 20 69
39 21 20
39 22 21
39 23 25
39 24 53
39 25 67
39 26 2
39 27 33
39 28 13
39 29 29
39 30 17
39 31 32
39 32 15
39 33 69
39 34 94
39 35 24
39 36 90
39 37 80
39 38 6
40 0 51
40 1 49
40 2 59
40 3 81
40 4 82
40 5 1
40 6 23
40 7 97
40 8 24
40 9 70
40 10 76
40 11 27
40 12 99
40 13 40
40 14 95
40 15 19
40 16 62
40 17 65
40 18 96
40 19 19
40 20 48
40 21 42
40 22 22
40 23 72
40 24 64
40 25 11
40 26 24
40 27 72
40 28 76
40 29 41
40 30 65
40 31 33
40 32 47
40 33 28
40 34 47
40 35 10
40 36 30
40 37 84
40 38 46
40 39 86
41 0 28
41 1 22
41 2 5
41 3 6
41 4 58
41 5 56
41 6 21
41 7 29
41 8 4
41 9 57
41 10 26
41 11 16
41 12 30
41 13 62
41 14 41
41 15 95
41 16 86
41 17 5
41 18 71
41 19 52
41 20 46
41 21 18
41 22 49
41 23 46
41 24 37
41 25 37
41 26 54
41 27 55
41 28 68
41 29 97
41 30 71
41 31 86
41 32 58
41 33 97
41 34 60
41 35 17
41 36 23
41 37 89
41 38 43
41 39 50
41 40 77
42 0 2
42 1 45
42 2 94
42 3 42
42 4 13
42 5 31
42 6 6
42 7 93
42 8 32
42 9 37
42 10 64
42 11 67
42 12 43
42 13 85
42 14 36
42 15 18
42 16 50
42 17 12
42 18 86
42 19 95
42 20 86
42 21 88
42 22 28
42 23 75
42 24 7
42 25 73
42 26 1
42 27 88
42 28 74
42 29 44
42 30 50
42 31 94
42 32 81
42 33 5
42 34 25
42 35 19
42 36 10
42 37 49
42 38 33
42 39 59
42 40 93
42 41 35
43 0 98
43 1 90
43 2 25
43 3 8
43 4 35
43 5 65
43 6 64
43 7 65
43 8 19
43 9 78
43 10 94
43 11 44
43 12 20
43 13 18
43 14 53
43 15 11
43 16 32
43 17 59
43 18 52
43 19 35
43 20 8
43 21 42
43 22 23
43 23 12
43 24 2
43 25 57
43 26 81
43 27 52
43 28 47
43 29 33
43 30 98
43 31 53
43 32 47
43 33 74
43 34 98
43 35 30
43 36 55
43 37 25
43 38 49
43 39 52
43 40 55
43 41 41
43 42 97
44 0 32
44 1 85
44 2 93
44 3 62
44 4 56
44 5 54
44 6 47
44 7 9
44 8 49
44 9 55
44 10 75
44 11 44
44 12 13
44 13 70
44 14 6
44 15 14
44 16 92
44 17 8
44 18 29
44 19 5
44 20 46
44 21 42
44 22 81
44 23 61
44 24 25
44 25 30
44 26 6
44 27 80
44 28 1
44 29 22
44 30 54
44 31 50
44 32 82
44 33 3
44 34 66
44 35 33
44 36 6
44 37 24
44 38 60
44 39 19
44 40 26
44 41 15
44 42 3
44 43 91
45 0 90
45 1 75
45 2 56
45 3 89
45 4 2
45 5 3
45 6 11
45 7 60
45 8 24
45 9 100
45 10 61
45 11 20
45 12 25
45 13 57
45 14 67
45 15 83
45 16 22
45 17 14
45 18 28
45 19 23
45 20 52
45 21 51
45 22 52
45 23 73
45 24 60
45 25 52
45 26 90
45 27 81
45 28 9
45 29 41
45 30 83
45 31 78
45 32 51
45 33 98
45 34 32
45 35 26
45 36 90
45 37 85
45 38 93
45 39 40
45 40 46
45 41 59
45 42 45
45 43 29
45 44 6
46 0 35
46 1 12
46 2 73
46 3 93
46 4 37
46 5 1
46 6 44
46 7 22
46 8 47
46 9 6
46 10 37
46 11 8
46 12 40
46 13 5
46 14 62
46 15 33
46 16 64
46 17 11
46 18 32
46 19 17
46 20 99
46 21 84
46 22 21
46 23 25
46 24 19
46 25 19
46 26 93
46 27 9
46 28 20
46 29 39
46 30 29
46 31 82
46 32 8
46 33 75
46 34 97
46 35 52
46 36 40
46 37 30
46 38 39
46 39 79
46 40 84
46 41 15
46 42 73
46 43 25
46 44 24
46 45 43
47 0 38
47 1 14
47 2 25
47 3 9
47 4 29
47 5 18
47 6 57
47 7 76
47 8 90
47 9 35
47 10 14
47 11 64
47 12 75
47 13 38
47 14 90
47 15 6
47 16 90
47 17 95
47 18 1
47 19 17
47 20 71
47 21 90
47 22 67
47 23 83
47 24 73
47 25 9
47 26 77
47 27 85
47 28 60
47 29 60
47 30 15
47 31 96
47 32 34
47 33 42
47 34 22
47 35 21
47 36 37
47 37 78
47 38 12
47 39 76
47 40 8
47 41 91
47 42 74
47 43 18
47 44 98
47 45 78
47 46 18
48 0 68
48 1 52
48 2 5
48 3 69
48 4 9
48 5 24
48 6 39
48 7 89
48 8 28
48 9 89
48 10 91
48 11 99
48 12 36
48 13 49
48 14 26
48 15 38
48 16 7
48 17 64
48 18 68
48 19 46
48 20 99
48 21 55
48 22 9
48 23 2
48 24 51
48 25 48
48 26 100
48 27 28
48 28 76
48 29 62
48 30 83
48 31 42
48 32 87
48 33 63
48 34 79
48 35 27
48 36 32
48 37 37
48 38 64
48 39 46
48 40 26
48 41 52
48 42 85
48 43 26
48 44 91
48 45 2
48 46 92
48 47 75
49 0 57
49 1 71
49 2 99
49 3 26
49 4 95
49 5 56
49 6 2
49 7 7
49 8 52
49 9 24
49 10 98
49 11 81
49 12 34
49 13 1
49 14 8
49 15 23
49 16 59
49 17 22
49 18 85
49 19 100
49 20 60
49 21 85
49 22 53
49 23 93
49 24 19
49 25 87
49 26 22
49 27 72
49 28 64
49 29 36
49 30 70
49 31 4
49 32 58
49 33 71
49 34 87
49 35 67
49 36 54
49 37 27
49 38 14
49 39 88
49 40 9
49 41 32
49 42 34
49 43 47
49 44 76
49 45 25
49 46 99
49 47 89
49 48 8
